p edge 29 49
e 1 3
e 1 5
e 1 6
e 1 7
e 1 9
e 1 10
e 1 12
e 1 14
e 1 18
e 1 19
e 1 25
e 1 29
e 1 2
e 2 28
e 2 24
e 2 23
e 2 13
e 2 22
e 2 21
e 2 15
e 2 17
e 2 16
e 2 20
e 2 26
e 2 27
e 2 11
e 2 8
e 2 4
e 3 6
e 3 5
e 3 29
e 3 9
e 3 12
e 3 25
e 3 19
e 3 18
e 3 14
e 3 10
e 3 7
e 5 6
e 5 29
e 5 9
e 5 10
e 5 7
e 16 17
e 16 20
e 17 20
e 24 26
e 24 27
